NAME : in_house_9_18
TYPE : TSP
DIMENSION : 9
EDGE_WEIGHT_TYPE : EXPLICIT
EDGE_WEIGHT_FORMAT : UPPER_ROW
COMMENT : INVERSION_SHIFT=9
EDGE_WEIGHT_SECTION
36
55
52
41
22
46
58
22
75
60
43
80
73
63
61
63
15
8
7
43
81
19
75
74
11
81
46
79
10
65
38
50
75
65
81
16
